GLPSOL--GLPK LP/MIP Solver 5.0
Parameter(s) specified in the command line:
 --lp ../modeles/2_384.lp --log 2_384.log
Reading problem data from '../modeles/2_384.lp'...
777 rows, 1540 columns, 5382 non-zeros
768 integer variables, all of which are binary
2325 lines were read
GLPK Integer Optimizer 5.0
777 rows, 1540 columns, 5382 non-zeros
768 integer variables, all of which are binary
Preprocessing...
764 constraint coefficient(s) were reduced
777 rows, 1538 columns, 5380 non-zeros
768 integer variables, all of which are binary
Scaling...
 A: min|aij| =  1.085e-04  max|aij| =  4.000e+00  ratio =  3.686e+04
GM: min|aij| =  7.217e-02  max|aij| =  1.386e+01  ratio =  1.920e+02
EQ: min|aij| =  5.208e-03  max|aij| =  1.000e+00  ratio =  1.920e+02
2N: min|aij| =  3.472e-03  max|aij| =  1.753e+00  ratio =  5.050e+02
Constructing initial basis...
Size of triangular part is 777
Solving LP relaxation...
GLPK Simplex Optimizer 5.0
777 rows, 1538 columns, 5380 non-zeros
      0: obj =   4.000000000e+00 inf =   9.500e+00 (5)
     45: obj =   4.724170205e-01 inf =   0.000e+00 (0)
*   175: obj =  -1.414197531e+00 inf =   3.663e-17 (0)
OPTIMAL LP SOLUTION FOUND
Integer optimization begins...
Long-step dual simplex will be used
+   175: mip =     not found yet >=              -inf        (1; 0)
+   239: >>>>>  -1.414197531e+00 >=  -1.414197531e+00 < 0.1% (65; 0)
+   239: mip =  -1.414197531e+00 >=     tree is empty   0.0% (0; 129)
INTEGER OPTIMAL SOLUTION FOUND
Time used:   0.1 secs
Memory used: 2.3 Mb (2360192 bytes)
